c WARNING: for repeatability, setting FPU to use double precision
c Problem Statistics:
c
c [33mBenchmark Information[0m
c Number of variables: 1118
c Number of clauses: 2054
c Number of literals: 4388
c Parse time: 0.00
c
c
c Backbone simplification
c The number of unit literal found is: 0
c Time to realize the backbone simplification: 0.001133
c
c [33mCollect Bi-Partition Procedure[0m
c Time to sort the selector: 0.000603
c Number of input variables computed: 106
c Time to compute the bi-partition: 0.015957
c
c Number of variables forgotten: 397
c Number of iterations: 2
c
c Vivification, total time: 0.000682
c Vivification, number of clauses removed: 686
c Vivification, number of literals removed: 151
c
c Occurrence Elimination, total time: 0.000322
c Occurrence Elimination, number of literals removed: 2
c Time used for the preprocessing step: 0.001621
c
p cnf 1118 1209
-233 -232 0
-235 -234 0
-254 -253 0
-256 -255 0
-272 -271 0
-274 -273 0
277 274 272 278 0
-232 -244 0
-234 -245 0
245 244 247 249 0
-323 -322 0
-325 -324 0
328 325 323 329 0
-272 -277 0
-274 -278 0
278 277 322 324 0
-322 -277 0
-324 -278 0
-271 -280 0
-273 -281 0
-280 -352 0
-281 -353 0
-323 -328 0
-325 -329 0
362 328 361 329 0
-361 -328 0
-362 -329 0
238 239 361 362 0
-238 -361 0
-239 -362 0
316 317 320 -388 0
-320 -389 0
389 -241 320 388 0
-317 -320 0
389 388 320 -316 0
-338 -370 0
-340 -371 0
286 283 284 285 0
-356 -385 0
-358 -386 0
357 355 358 356 0
-376 -385 0
-377 -386 0
385 358 356 386 0
-248 -382 0
-250 -383 0
-254 -379 0
-256 -380 0
-373 -376 0
-374 -377 0
386 385 376 377 0
-346 -373 0
-347 -374 0
313 314 224 226 0
-238 -239 235 0
233 235 234 232 0
-334 -370 0
-335 -371 0
344 343 338 340 0
235 233 238 239 0
-233 -235 0
273 271 281 280 0
-356 -355 0
-358 -357 0
-293 -349 0
-295 -350 0
-313 -346 0
-314 -347 0
373 374 376 377 0
-224 -313 0
-226 -314 0
230 229 223 225 0
-338 -343 0
-340 -344 0
-338 -337 0
-340 -339 0
-331 -334 0
-332 -335 0
370 335 334 371 0
-289 -331 0
-290 -332 0
332 331 334 335 0
-284 -316 0
-317 -286 0
316 317 241 242 0
-388 242 320 241 0
-320 -242 0
283 285 289 290 0
-316 -241 0
-317 -242 0
-241 317 320 0
-310 -313 0
-311 -314 0
-259 -310 0
-260 -311 0
310 311 313 314 0
-305 -304 0
-307 -306 0
-299 -298 0
-301 -300 0
-293 -292 0
-295 -294 0
-283 -289 0
-285 -290 0
289 290 331 332 0
-284 -283 0
-286 -285 0
316 317 284 286 0
-262 -268 0
-264 -269 0
-263 -262 0
-265 -264 0
-253 -259 0
-255 -260 0
310 311 259 260 0
-247 -244 0
-249 -245 0
247 249 248 250 0
-248 -247 0
-250 -249 0
382 383 248 250 0
-241 -232 0
-242 -234 0
-238 -233 0
-239 -235 0
-223 -229 0
-225 -230 0
-224 -223 0
-226 -225 0
314 313 347 346 0
-224 -226 0
-223 -225 0
-232 -234 0
244 245 234 232 0
-248 -250 0
-247 -249 0
-254 -256 0
379 380 254 256 0
-253 -255 0
254 256 253 255 0
-263 -265 0
269 268 262 264 0
-262 -264 0
-272 -274 0
-271 -273 0
272 274 271 273 0
-284 -286 0
-283 -285 0
-293 -295 0
-292 -294 0
349 350 293 295 0
-299 -301 0
300 298 299 301 0
-298 -300 0
-305 -307 0
306 304 305 307 0
-304 -306 0
-259 -260 0
-310 -311 0
-244 -245 0
-323 -325 0
-322 -324 0
322 324 323 325 0
-289 -290 0
-331 -332 0
-277 -278 0
-338 -340 0
-337 -339 0
339 337 338 340 0
-313 -314 0
-349 -350 0
294 292 295 293 0
-343 -344 0
370 340 338 371 0
-280 -281 0
353 281 352 280 0
-352 -353 0
-356 -358 0
-355 -357 0
347 346 373 374 0
-361 -362 0
-328 -329 0
-334 -335 0
-346 -347 0
-373 -374 0
-268 -269 0
265 263 264 262 0
-379 -380 0
253 255 259 260 0
-382 -383 0
234 232 241 242 0
-376 -377 0
-385 -386 0
-370 -371 0
-229 -230 0
224 226 223 225 0
-389 -388 0
320 241 -316 242 0
167 0
168 0
169 0
170 0
171 0
172 0
173 0
174 0
175 0
176 0
177 0
178 0
179 0
180 0
181 0
182 0
183 0
184 0
185 0
186 0
187 0
188 0
189 0
190 0
191 0
192 0
193 0
194 0
195 0
196 0
197 0
198 0
199 0
200 0
201 0
202 0
203 0
204 0
205 0
206 0
207 0
208 0
209 0
210 0
211 0
212 0
213 0
214 0
215 0
216 0
217 0
218 0
219 0
220 0
221 0
222 0
559 0
393 0
391 0
-392 0
563 0
396 0
394 0
-395 0
567 0
399 0
397 0
-398 0
571 0
402 0
400 0
-401 0
575 0
405 0
403 0
-404 0
579 0
408 0
406 0
-407 0
583 0
411 0
409 0
-410 0
587 0
414 0
412 0
-413 0
591 0
417 0
415 0
-416 0
595 0
420 0
418 0
-419 0
599 0
423 0
421 0
-422 0
603 0
426 0
424 0
-425 0
607 0
429 0
427 0
-428 0
611 0
432 0
430 0
-431 0
615 0
435 0
433 0
-434 0
619 0
438 0
436 0
-437 0
623 0
441 0
439 0
-440 0
627 0
444 0
442 0
-443 0
631 0
447 0
445 0
-446 0
635 0
450 0
448 0
-449 0
639 0
453 0
451 0
-452 0
643 0
456 0
454 0
-455 0
647 0
459 0
457 0
-458 0
651 0
462 0
460 0
-461 0
655 0
465 0
463 0
-464 0
659 0
468 0
466 0
-467 0
663 0
471 0
469 0
-470 0
667 0
474 0
472 0
-473 0
671 0
477 0
475 0
-476 0
675 0
480 0
478 0
-479 0
679 0
483 0
481 0
-482 0
683 0
486 0
484 0
-485 0
687 0
489 0
487 0
-488 0
691 0
492 0
490 0
-491 0
695 0
495 0
493 0
-494 0
699 0
498 0
496 0
-497 0
703 0
501 0
499 0
-500 0
707 0
504 0
502 0
-503 0
711 0
507 0
505 0
-506 0
715 0
510 0
508 0
-509 0
719 0
513 0
511 0
-512 0
723 0
516 0
514 0
-515 0
727 0
519 0
517 0
-518 0
731 0
522 0
520 0
-521 0
735 0
525 0
523 0
-524 0
739 0
528 0
526 0
-527 0
743 0
531 0
529 0
-530 0
747 0
534 0
532 0
-533 0
751 0
537 0
535 0
-536 0
755 0
540 0
538 0
-539 0
759 0
543 0
541 0
-542 0
763 0
546 0
544 0
-545 0
767 0
549 0
547 0
-548 0
771 0
552 0
550 0
-551 0
775 0
555 0
553 0
-554 0
779 0
558 0
556 0
-557 0
-1 0
-2 0
-3 0
-4 0
-5 0
-6 0
-7 0
-8 0
-9 0
-10 0
-11 0
-12 0
-13 0
-14 0
-15 0
-16 0
-17 0
-18 0
-19 0
-20 0
-21 0
-22 0
-23 0
-24 0
-25 0
-26 0
-27 0
-28 0
-29 0
-30 0
-31 0
-32 0
-33 0
-34 0
-35 0
-36 0
-37 0
-38 0
-39 0
-40 0
-41 0
-42 0
-43 0
-44 0
-45 0
-46 0
-47 0
-48 0
-49 0
-50 0
-51 0
-52 0
-53 0
-54 0
-55 0
-56 0
-57 0
-58 0
-59 0
-60 0
-61 0
-62 0
-63 0
-64 0
-65 0
-66 0
-67 0
-68 0
-69 0
-70 0
-71 0
-72 0
-73 0
-74 0
-75 0
-76 0
-77 0
-78 0
-79 0
-80 0
-81 0
-82 0
-83 0
-84 0
-85 0
-86 0
-87 0
-88 0
-89 0
-90 0
-91 0
-92 0
-93 0
-94 0
-95 0
-96 0
-97 0
-98 0
-99 0
-100 0
-101 0
-102 0
-103 0
-104 0
-105 0
-106 0
-107 0
-108 0
-109 0
-110 0
-111 0
-112 0
-113 0
-114 0
-115 0
-116 0
-117 0
-118 0
-119 0
-120 0
-121 0
-122 0
-123 0
-124 0
-125 0
-126 0
-127 0
-128 0
-129 0
-130 0
-131 0
-132 0
-133 0
-134 0
-135 0
-136 0
-137 0
-138 0
-139 0
-140 0
-141 0
-142 0
-143 0
-144 0
-145 0
-146 0
-147 0
-148 0
-149 0
-150 0
-151 0
-152 0
-153 0
-154 0
-155 0
-156 0
-157 0
-158 0
-159 0
-160 0
-161 0
-162 0
-163 0
-164 0
-165 0
-166 0
-786 0
-787 0
-788 0
-792 0
-793 0
-794 0
-798 0
-799 0
-800 0
-804 0
-805 0
-806 0
-810 0
-811 0
-812 0
-816 0
-817 0
-818 0
-822 0
-823 0
-824 0
-828 0
-829 0
-830 0
-834 0
-835 0
-836 0
-840 0
-841 0
-842 0
-846 0
-847 0
-848 0
-852 0
-853 0
-854 0
-858 0
-859 0
-860 0
-864 0
-865 0
-866 0
-870 0
-871 0
-872 0
-876 0
-877 0
-878 0
-882 0
-883 0
-884 0
-888 0
-889 0
-890 0
-894 0
-895 0
-896 0
-900 0
-901 0
-902 0
-906 0
-907 0
-908 0
-912 0
-913 0
-914 0
-918 0
-919 0
-920 0
-924 0
-925 0
-926 0
-930 0
-931 0
-932 0
-936 0
-937 0
-938 0
-942 0
-943 0
-944 0
-948 0
-949 0
-950 0
-954 0
-955 0
-956 0
-960 0
-961 0
-962 0
-966 0
-967 0
-968 0
-972 0
-973 0
-974 0
-978 0
-979 0
-980 0
-984 0
-985 0
-986 0
-990 0
-991 0
-992 0
-996 0
-997 0
-998 0
-1002 0
-1003 0
-1004 0
-1008 0
-1009 0
-1010 0
-1014 0
-1015 0
-1016 0
-1020 0
-1021 0
-1022 0
-1026 0
-1027 0
-1028 0
-1032 0
-1033 0
-1034 0
-1038 0
-1039 0
-1040 0
-1044 0
-1045 0
-1046 0
-1050 0
-1051 0
-1052 0
-1056 0
-1057 0
-1058 0
-1062 0
-1063 0
-1064 0
-1068 0
-1069 0
-1070 0
-1074 0
-1075 0
-1076 0
-1080 0
-1081 0
-1082 0
-1086 0
-1087 0
-1088 0
-1092 0
-1093 0
-1094 0
-1098 0
-1099 0
-1100 0
-1104 0
-1105 0
-1106 0
-1110 0
-1111 0
-1112 0
-1116 0
-1117 0
-1118 0
c The variables forgot
1115 0
1114 0
1113 0
1109 0
1108 0
1107 0
1103 0
1102 0
1101 0
1097 0
1096 0
1095 0
1091 0
1090 0
1089 0
1085 0
1084 0
1083 0
1079 0
1078 0
1077 0
1073 0
1072 0
1071 0
1067 0
1066 0
1065 0
1061 0
1060 0
1059 0
1055 0
1054 0
1053 0
1049 0
1048 0
1047 0
1043 0
1042 0
1041 0
1037 0
1036 0
1035 0
1031 0
1030 0
1029 0
1025 0
1024 0
1023 0
1019 0
1018 0
1017 0
1013 0
1012 0
1011 0
1007 0
1006 0
1005 0
1001 0
1000 0
999 0
995 0
994 0
993 0
560 0
561 0
562 0
564 0
565 0
566 0
568 0
569 0
570 0
572 0
573 0
574 0
576 0
577 0
578 0
580 0
581 0
582 0
584 0
585 0
586 0
588 0
589 0
590 0
592 0
593 0
594 0
596 0
597 0
598 0
600 0
601 0
602 0
604 0
605 0
606 0
608 0
609 0
610 0
612 0
613 0
614 0
616 0
617 0
618 0
620 0
621 0
622 0
624 0
625 0
626 0
628 0
629 0
630 0
632 0
633 0
634 0
636 0
637 0
638 0
640 0
641 0
642 0
644 0
645 0
646 0
648 0
649 0
650 0
652 0
653 0
654 0
656 0
657 0
658 0
660 0
661 0
662 0
664 0
665 0
666 0
668 0
669 0
670 0
672 0
673 0
674 0
676 0
677 0
678 0
680 0
681 0
682 0
684 0
685 0
686 0
688 0
689 0
690 0
692 0
693 0
694 0
696 0
697 0
698 0
700 0
701 0
702 0
704 0
705 0
706 0
708 0
709 0
710 0
712 0
713 0
714 0
716 0
717 0
718 0
720 0
721 0
722 0
724 0
725 0
726 0
728 0
729 0
730 0
732 0
733 0
734 0
736 0
737 0
738 0
740 0
741 0
742 0
744 0
745 0
746 0
748 0
749 0
750 0
752 0
753 0
754 0
756 0
757 0
758 0
760 0
761 0
762 0
764 0
765 0
766 0
768 0
769 0
770 0
772 0
773 0
774 0
776 0
777 0
778 0
780 0
781 0
782 0
783 0
784 0
785 0
789 0
790 0
791 0
795 0
796 0
797 0
801 0
802 0
803 0
807 0
808 0
809 0
813 0
814 0
815 0
819 0
820 0
821 0
825 0
826 0
827 0
831 0
832 0
833 0
837 0
838 0
839 0
843 0
844 0
845 0
849 0
850 0
851 0
855 0
856 0
857 0
861 0
862 0
863 0
867 0
868 0
869 0
873 0
874 0
875 0
879 0
880 0
881 0
885 0
886 0
887 0
891 0
892 0
893 0
897 0
898 0
899 0
903 0
904 0
905 0
909 0
910 0
911 0
915 0
916 0
917 0
921 0
922 0
923 0
927 0
928 0
929 0
933 0
934 0
935 0
939 0
940 0
941 0
945 0
946 0
947 0
951 0
952 0
953 0
957 0
958 0
959 0
963 0
964 0
965 0
969 0
970 0
971 0
975 0
976 0
977 0
981 0
982 0
983 0
987 0
988 0
989 0
364 0
367 0
243 0
381 0
359 0
354 0
351 0
345 0
341 0
309 0
308 0
303 0
302 0
296 0
270 0
267 0
231 0
318 0
319 0
390 0
384 0
237 0
368 0
240 0
366 0
365 0
372 0
363 0
360 0
348 0
336 0
333 0
330 0
327 0
326 0
312 0
297 0
291 0
288 0
287 0
282 0
279 0
276 0
275 0
266 0
261 0
258 0
257 0
252 0
251 0
246 0
228 0
227 0
387 0
378 0
375 0
342 0
236 0
315 0
369 0
321 0
c The number of literals is: 500
c The number of variables is: 107
